NAME : single.13812.tour
COMMENT : Length = 13812
COMMENT : Found by LKH [Keld Helsgaun] Mon Nov  4 16:06:28 2024
TYPE : TOUR
DIMENSION : 31
TOUR_SECTION
1
31
30
28
29
27
26
25
24
18
19
23
14
15
16
20
17
22
21
13
10
7
12
11
9
8
5
6
4
3
2
-1
EOF
